sat
(:max-memory         18.25
 :memory             18.15
 :nlsat-propagations 23
 :nlsat-stages       4
 :num-allocs         60602
 :rlimit-count       7985
 :time               0.00
 :total-time         0.01)
